<number of tasks>
50

<cycle time>
1000

<order strength>
0.598


<task times>
1 90
2 23
3 138
4 91
5 129
6 84
7 243
8 166
9 171
10 206
11 190
12 230
13 82
14 47
15 162
16 109
17 85
18 44
19 207
20 166
21 44
22 101
23 32
24 232
25 76
26 116
27 231
28 163
29 61
30 103
31 260
32 131
33 190
34 75
35 63
36 63
37 105
38 31
39 118
40 62
41 132
42 237
43 105
44 112
45 71
46 65
47 79
48 250
49 80
50 316

<precedence relations>
1,6
2,7
2,9
3,8
3,9
3,10
4,8
4,9
4,10
5,8
5,9
5,10
6,11
7,12
8,13
8,14
8,15
9,13
9,14
9,15
10,13
10,14
10,15
11,16
12,19
13,17
13,18
13,19
13,20
14,18
14,19
14,20
15,18
15,19
15,20
16,24
17,22
18,21
18,23
18,24
18,26
19,23
19,25
20,23
20,24
21,28
22,29
23,27
23,33
23,40
23,49
24,29
25,39
25,40
25,41
25,49
26,29
27,30
28,31
29,32
29,33
29,36
30,35
31,36
32,34
32,40
33,39
34,37
35,38
36,39
36,40
36,41
37,42
38,43
39,44
39,45
40,46
42,49
43,47
44,48
45,50

<end>
